hsinling_hw4/h4p1.cnf
p cnf 66 172
-4 -5 6 0
4 -6 0
5 -6 0
-7 -1 8 0
7 -8 0
1 -8 0
-9 -2 10 0
9 -10 0
2 -10 0
-3 -11 12 0
3 -12 0
11 -12 0
-11 -3 13 0
11 -13 0
3 -13 0
-5 -4 14 0
5 -14 0
4 -14 0
-2 -9 15 0
2 -15 0
9 -15 0
-1 -7 16 0
1 -16 0
7 -16 0
1 7 17 0
-1 -17 0
-7 -17 0
11 3 18 0
-11 -18 0
-3 -18 0
2 9 19 0
-2 -19 0
-9 -19 0
7 1 20 0
-7 -20 0
-1 -20 0
5 4 21 0
-5 -21 0
-4 -21 0
8 20 22 0
-8 -22 0
-20 -22 0
13 18 23 0
-13 -23 0
-18 -23 0
19 21 24 0
-19 -24 0
-21 -24 0
15 19 25 0
-15 -25 0
-19 -25 0
17 18 26 0
-17 -26 0
-18 -26 0
18 17 27 0
-18 -27 0
-17 -27 0
14 21 28 0
-14 -28 0
-21 -28 0
19 -29 30 0
-19 -30 0
29 -30 0
21 -15 31 0
-21 -31 0
15 -31 0
-27 -24 32 0
27 -32 0
24 -32 0
-29 -24 33 0
29 -33 0
24 -33 0
-25 -29 34 0
25 -34 0
29 -34 0
-29 -32 35 0
29 -35 0
32 -35 0
6 31 36 0
-6 -36 0
-31 -36 0
15 30 37 0
-15 -37 0
-30 -37 0
26 16 38 0
-26 -38 0
-16 -38 0
33 -36 39 0
-33 -39 0
36 -39 0
10 34 40 0
-10 -40 0
-34 -40 0
-40 -37 41 0
40 -41 0
37 -41 0
36 -27 42 0
-36 -42 0
27 -42 0
40 37 43 0
-40 -43 0
-37 -43 0
39 18 44 0
-39 -44 0
-18 -44 0
40 -28 45 0
-40 -45 0
28 -45 0
42 -38 46 0
-42 -46 0
38 -46 0
12 44 47 0
-12 -47 0
-44 -47 0
-46 35 48 0
46 -48 0
-35 -48 0
43 41 49 0
-43 -49 0
-41 -49 0
14 45 50 0
-14 -50 0
-45 -50 0
-50 -39 51 0
50 -51 0
39 -51 0
50 39 52 0
-50 -52 0
-39 -52 0
-23 50 53 0
23 -53 0
-50 -53 0
12 53 54 0
-12 -54 0
-53 -54 0
52 51 55 0
-52 -55 0
-51 -55 0
-49 -55 56 0
49 -56 0
55 -56 0
-54 -47 57 0
54 -57 0
47 -57 0
54 47 58 0
-54 -58 0
-47 -58 0
54 -22 59 0
-54 -59 0
22 -59 0
58 57 60 0
-58 -60 0
-57 -60 0
8 59 61 0
-8 -61 0
-59 -61 0
-60 -56 62 0
60 -62 0
56 -62 0
-61 -48 63 0
61 -63 0
48 -63 0
61 48 64 0
-61 -64 0
-48 -64 0
64 63 65 0
-64 -65 0
-63 -65 0
-62 -65 66 0
62 -66 0
65 -66 0
66 0
