hsinling_hw4/h4p1.txt
The CNF formula is UNSAT. The two designs are equivalent.
